(declare-fun Timing2 () Int)
(declare-fun n_Timing2 () Real)
(declare-fun i02 () Real)
(declare-fun i12 () Real)
(declare-fun i22 () Real)
(declare-fun i32 () Real)
(declare-fun i42 () Real)
(declare-fun i52 () Real)
(declare-fun i62 () Real)

; normalize
(assert (= (+ (* n_Timing2 60.0) (- 31.0)) (to_real Timing2)))

(assert (>= Timing2 (- 31)))
(assert (>= i02 0.0))
(assert (>= i12 0.0))
(assert (>= i22 0.0))
(assert (>= i32 0.0))
(assert (>= i42 0.0))
(assert (>= i52 0.0))
(assert (>= i62 0.0))
(assert (<= Timing2 29))
(assert (<= i02 1.0))
(assert (<= i12 1.0))
(assert (<= i22 1.0))
(assert (<= i32 1.0))
(assert (<= i42 1.0))
(assert (<= i52 1.0))
(assert (<= i62 1.0))



(assert
(forall ((Timing Int) (n_Timing Real)
         (n_i0 Real) ;(i0 Real)
         (n_i1 Real) ;(i1 Real)
         (n_i2 Real) ;(i2 Real)
         (n_i3 Real) ;(i3 Real)
         (n_i4 Real) ;(i4 Real)
         (n_i5 Real) ;(i5 Real)
         (n_i6 Real) ;(i6 Real)
        )
 (=>
  (and
       ; normalize
       (= (+ (* n_Timing 60.0) (- 31.0)) (to_real Timing))

       (>= Timing (- 31))
       (>= n_i0 0.0)
       (>= n_i1 0.0)
       (>= n_i2 0.0)
       (>= n_i3 0.0)
       (>= n_i4 0.0)
       (>= n_i5 0.0)
       (>= n_i6 0.0)
       (<= Timing 29)
       (<= n_i0 1.0)
       (<= n_i1 1.0)
       (<= n_i2 1.0)
       (<= n_i3 1.0)
       (<= n_i4 1.0)
       (<= n_i5 1.0)
       (<= n_i6 1.0)


       ; check n_i? is in region around i?2 simplified:
       ; radius based on normalized value instead of non-normalized
       (and (>= (- Timing2 Timing) (- 5))
            (<  (- Timing2 Timing)    5))
       (and (>= (/ (- i02 n_i0) n_i0) (- (/ 1.0 10.0)))
            (<= (/ (- i02 n_i0) n_i0) (/ 1.0 10.0)))
       (and (>= (/ (- i12 n_i1) n_i1) (- (/ 1.0 10.0)))
            (<= (/ (- i12 n_i1) n_i1) (/ 1.0 10.0)))
       (and (>= (/ (- i22 n_i2) n_i2) (- (/ 1.0 10.0)))
            (<= (/ (- i22 n_i2) n_i2) (/ 1.0 10.0)))
       (and (>= (/ (- i32 n_i3) n_i3) (- (/ 1.0 10.0)))
            (<= (/ (- i32 n_i3) n_i3) (/ 1.0 10.0)))
       (and (>= (/ (- i42 n_i4) n_i4) (- (/ 1.0 10.0)))
            (<= (/ (- i42 n_i4) n_i4) (/ 1.0 10.0)))
       (and (>= (/ (- i52 n_i5) n_i5) (- (/ 1.0 10.0)))
            (<= (/ (- i52 n_i5) n_i5) (/ 1.0 10.0)))
       (and (>= (/ (- i62 n_i6) n_i6) (- (/ 1.0 10.0)))
            (<= (/ (- i62 n_i6) n_i6) (/ 1.0 10.0)))

  )

(let ((a!1 (+ 0.0
              (* n_Timing (- (/ 5396419.0 10000000000.0)))
              (* n_i0 (/ 5572681.0 10000000.0))
              (* n_i1 (- (/ 1761383.0 10000000.0)))
              (* n_i2 (- (/ 13070549.0 25000000.0)))
              (* n_i3 (- (/ 5773363.0 100000000.0)))
              (* n_i4 (- (/ 40977943.0 50000000.0)))
              (* n_i5 (- (/ 12463583.0 200000000.0)))
              (* n_i6 (- (/ 9381087.0 50000000.0)))
              (/ 9534643.0 125000000.0)))
      (a!2 (+ 0.0
              (* n_Timing (- (/ 2421657.0 3125000.0)))
              (* n_i0 (/ 8427859.0 1000000000.0))
              (* n_i1 (/ 494963.0 100000000.0))
              (* n_i2 (- (/ 4334889.0 1000000000.0)))
              (* n_i3 (/ 17142499.0 500000000.0))
              (* n_i4 (- (/ 2681657.0 50000000.0)))
              (* n_i5 (- (/ 29333549.0 1000000000.0)))
              (* n_i6 (- (/ 1388991.0 5000000.0)))
              (/ 44319937.0 100000000.0)))
      (a!3 (+ 0.0
              (* n_Timing (/ 16427143.0 200000000.0))
              (* n_i0 (/ 5766843.0 125000000.0))
              (* n_i1 (/ 7162477.0 10000000.0))
              (* n_i2 (/ 17161351.0 100000000.0))
              (* n_i3 (/ 4819863.0 250000000.0))
              (* n_i4 (- (/ 13457139.0 250000000.0)))
              (* n_i5 (- (/ 8558947.0 100000000.0)))
              (* n_i6 (- (/ 4702469.0 12500000.0)))
              (- (/ 48305997.0 100000000.0))))
      (a!4 (+ 0.0
              (* n_Timing (- (/ 4727041.0 50000000.0)))
              (* n_i0 (/ 23584987.0 50000000.0))
              (* n_i1 (- (/ 220139.0 3125000.0)))
              (* n_i2 (- (/ 16047539.0 50000000.0)))
              (* n_i3 (- (/ 1718831.0 10000000.0)))
              (* n_i4 (- (/ 26019323.0 50000000.0)))
              (* n_i5 (- (/ 6175587.0 50000000.0)))
              (* n_i6 (- (/ 9474439.0 10000000.0)))
              (/ 308653.0 2000000.0)))
      (a!5 (+ 0.0
              (* n_Timing (- (/ 1975031.0 100000000.0)))
              (* n_i0 (- (/ 1032159.0 25000000.0)))
              (* n_i1 (/ 31133387.0 1000000000.0))
              (* n_i2 (/ 49169767.0 50000000.0))
              (* n_i3 (- (/ 19385347.0 500000000.0)))
              (* n_i4 (- (/ 808587.0 20000000.0)))
              (* n_i5 (/ 11398619.0 500000000.0))
              (* n_i6 (- (/ 1360331.0 10000000.0)))
              (- (/ 30969277.0 50000000.0))))
      (a!6 (+ 0.0
              (* n_Timing (/ 4287897.0 20000000.0))
              (* n_i0 (- (/ 7514951.0 100000000.0)))
              (* n_i1 (/ 1141497.0 20000000.0))
              (* n_i2 (/ 14000523.0 20000000.0))
              (* n_i3 (/ 2164017.0 25000000.0))
              (* n_i4 (/ 4520601.0 20000000.0))
              (* n_i5 (/ 1983227.0 50000000.0))
              (* n_i6 (/ 3587583.0 5000000.0))
              (- (/ 7249447.0 25000000.0))))
      (a!7 (+ 0.0
              (* n_Timing (/ 1225697.0 12500000.0))
              (* n_i0 (- (/ 3941713.0 500000000.0)))
              (* n_i1 (- (/ 7795387.0 10000000.0)))
              (* n_i2 (/ 2638179.0 20000000.0))
              (* n_i3 (/ 6886787.0 50000000.0))
              (* n_i4 (- (/ 3360489.0 100000000.0)))
              (* n_i5 (- (/ 6540017.0 100000000.0)))
              (* n_i6 (- (/ 16355677.0 50000000.0)))
              (/ 13902639.0 50000000.0)))
      (a!8 (+ 0.0
              (* n_Timing (- (/ 15331091.0 200000000.0)))
              (* n_i0 (- (/ 20004053.0 100000000.0)))
              (* n_i1 (/ 2702653.0 25000000.0))
              (* n_i2 (/ 1296693.0 1250000.0))
              (* n_i3 (- (/ 4042929.0 125000000.0)))
              (* n_i4 (/ 3884987.0 20000000.0))
              (* n_i5 (- (/ 5024607.0 100000000.0)))
              (* n_i6 (- (/ 1851163.0 50000000.0)))
              (- (/ 5003107.0 50000000.0))))
      (a!9 (+ 0.0
              (* n_Timing (/ 37586147.0 100000000.0))
              (* n_i0 (/ 1434413.0 500000000.0))
              (* n_i1 (- (/ 4156651.0 25000000.0)))
              (* n_i2 (/ 101388.0 390625.0))
              (* n_i3 (/ 4348469.0 10000000.0))
              (* n_i4 (- (/ 537019.0 6250000.0)))
              (* n_i5 (/ 655697.0 40000000.0))
              (* n_i6 (- (/ 18622753.0 50000000.0)))
              (/ 10740301.0 100000000.0)))
      (a!10 (+ 0.0
               (* n_Timing (/ 7151167.0 100000000.0))
               (* n_i0 (- (/ 11846857.0 500000000.0)))
               (* n_i1 (/ 2105449.0 50000000.0))
               (* n_i2 (/ 25978293.0 10000000000.0))
               (* n_i3 (- (/ 1341701.0 12500000.0)))
               (* n_i4 (/ 2501287.0 12500000.0))
               (* n_i5 (/ 8975753.0 100000000.0))
               (* n_i6 (/ 499453.0 625000.0))
               (- (/ 25811583.0 50000000.0))))
      (a!11 (+ 0.0
               (* n_Timing (- (/ 1674383.0 500000000.0)))
               (* n_i0 (/ 5533787.0 125000000.0))
               (* n_i1 (/ 11672371.0 1000000000.0))
               (* n_i2 (- (/ 8102793.0 500000000.0)))
               (* n_i3 (/ 68733597.0 100000000.0))
               (* n_i4 (- (/ 54250393.0 500000000.0)))
               (* n_i5 (/ 8470007.0 500000000.0))
               (* n_i6 (- (/ 27869573.0 500000000.0)))
               (- (/ 23342793.0 100000000.0))))
      (a!12 (+ 0.0
               (* n_Timing (/ 6928347.0 200000000.0))
               (* n_i0 (- (/ 15151427.0 1000000000.0)))
               (* n_i1 (/ 3250259.0 1250000000.0))
               (* n_i2 (/ 5904159.0 125000000.0))
               (* n_i3 (/ 4519979.0 250000000.0))
               (* n_i4 (- (/ 6327407.0 200000000.0)))
               (* n_i5 (/ 4747177.0 25000000.0))
               (* n_i6 (/ 11239939.0 10000000.0))
               (- (/ 283179.0 1000000.0))))
      (a!13 (+ 0.0
               (* n_Timing (/ 67983.0 80000.0))
               (* n_i0 (/ 54922793.0 10000000000.0))
               (* n_i1 (/ 62117367.0 10000000000.0))
               (* n_i2 (/ 4792927.0 100000000.0))
               (* n_i3 (/ 16887043.0 1000000000.0))
               (* n_i4 (- (/ 3216509.0 62500000.0)))
               (* n_i5 (- (/ 183083.0 4000000.0)))
               (* n_i6 (- (/ 674709.0 2000000.0)))
               (- (/ 3855601.0 10000000.0))))
      (a!14 (+ 0.0
               (* n_Timing (- (/ 2386499.0 5000000.0)))
               (* n_i0 (- (/ 11078757.0 25000000.0)))
               (* n_i1 (- (/ 71831.0 390625.0)))
               (* n_i2 (- (/ 1094929.0 5000000.0)))
               (* n_i3 (- (/ 3770879.0 25000000.0)))
               (* n_i4 (/ 1132679.0 20000000.0))
               (* n_i5 (- (/ 7515669.0 100000000.0)))
               (* n_i6 (- (/ 5890757.0 50000000.0)))
               0.0))
      (a!15 (+ 0.0
               (* n_Timing (/ 2052091.0 10000000.0))
               (* n_i0 (- (/ 2806399.0 400000000.0)))
               (* n_i1 (/ 16349973.0 100000000.0))
               (* n_i2 (/ 1855741.0 25000000.0))
               (* n_i3 (- (/ 3778519.0 25000000.0)))
               (* n_i4 (/ 39931443.0 1000000000.0))
               (* n_i5 (/ 4568119.0 2500000000.0))
               (* n_i6 (- (/ 324619.0 500000.0)))
               (/ 34556243.0 100000000.0)))
      (a!16 (+ 0.0
               (* n_Timing (/ 2232391.0 10000000.0))
               (* n_i0 (- (/ 5449101.0 50000000.0)))
               (* n_i1 (/ 6457089.0 25000000.0))
               (* n_i2 (- (/ 2477817.0 5000000.0)))
               (* n_i3 (/ 2820893.0 12500000.0))
               (* n_i4 (/ 556339.0 2000000.0))
               (* n_i5 (/ 33666577.0 1000000000.0))
               (* n_i6 (- (/ 19456953.0 100000000.0)))
               (/ 4799841.0 250000000.0))))
(let ((a!17 (+ 0.0
               (* (ite (>= a!1 0.0) a!1 0.0) (- (/ 4065347.0 10000000.0)))
               (* (ite (>= a!2 0.0) a!2 0.0) (/ 16560091.0 25000000.0))
               (* (ite (>= a!3 0.0) a!3 0.0) (- (/ 36845523.0 50000000.0)))
               (* (ite (>= a!4 0.0) a!4 0.0) (- (/ 46840367.0 100000000.0)))
               (* (ite (>= a!5 0.0) a!5 0.0) (/ 15423561.0 10000000.0))
               (* (ite (>= a!6 0.0) a!6 0.0) (- (/ 22253057.0 100000000.0)))
               (* (ite (>= a!7 0.0) a!7 0.0) (- (/ 2938659.0 5000000.0)))
               (* (ite (>= a!8 0.0) a!8 0.0) (/ 5191291.0 25000000.0))
               (* (ite (>= a!9 0.0) a!9 0.0) (- (/ 6953507.0 25000000.0)))
               (* (ite (>= a!10 0.0) a!10 0.0) (/ 2492671.0 5000000.0))
               (* (ite (>= a!11 0.0) a!11 0.0) (/ 568327.0 1000000.0))
               (* (ite (>= a!12 0.0) a!12 0.0) (- (/ 24145369.0 100000000.0)))
               (* (ite (>= a!13 0.0) a!13 0.0) (- (/ 5096659.0 10000000.0)))
               (* (ite (>= a!14 0.0) a!14 0.0) (/ 39012253.0 100000000.0))
               (* (ite (>= a!15 0.0) a!15 0.0) (- (/ 1585623.0 10000000.0)))
               (* (ite (>= a!16 0.0) a!16 0.0) (- (/ 23863083.0 100000000.0)))
               (/ 20034121.0 100000000.0)))
      (a!18 (+ 0.0
               (* (ite (>= a!1 0.0) a!1 0.0) (- (/ 19628939.0 50000000.0)))
               (* (ite (>= a!2 0.0) a!2 0.0) (/ 4508123.0 20000000.0))
               (* (ite (>= a!3 0.0) a!3 0.0) (/ 6762001.0 25000000.0))
               (* (ite (>= a!4 0.0) a!4 0.0) (- (/ 8961541.0 20000000.0)))
               (* (ite (>= a!5 0.0) a!5 0.0) (/ 12907669.0 200000000.0))
               (* (ite (>= a!6 0.0) a!6 0.0) (- (/ 1441981.0 2500000.0)))
               (* (ite (>= a!7 0.0) a!7 0.0) (- (/ 17246513.0 50000000.0)))
               (* (ite (>= a!8 0.0) a!8 0.0) (/ 6323793.0 100000000.0))
               (* (ite (>= a!9 0.0) a!9 0.0) (- (/ 4143133.0 12500000.0)))
               (* (ite (>= a!10 0.0) a!10 0.0) (- (/ 974319.0 2000000.0)))
               (* (ite (>= a!11 0.0) a!11 0.0) (- (/ 7201271.0 20000000.0)))
               (* (ite (>= a!12 0.0) a!12 0.0) (/ 5843277.0 20000000.0))
               (* (ite (>= a!13 0.0) a!13 0.0) (- (/ 773247.0 2000000.0)))
               (* (ite (>= a!14 0.0) a!14 0.0) (- (/ 745623.0 1562500.0)))
               (* (ite (>= a!15 0.0) a!15 0.0) (- (/ 42568263.0 100000000.0)))
               (* (ite (>= a!16 0.0) a!16 0.0) (/ 513739.0 2500000.0))
               (- (/ 8562493.0 100000000.0))))
      (a!19 (+ 0.0
               (* (ite (>= a!1 0.0) a!1 0.0) (/ 2444463.0 12500000.0))
               (* (ite (>= a!2 0.0) a!2 0.0) (- (/ 23134513.0 50000000.0)))
               (* (ite (>= a!3 0.0) a!3 0.0) (/ 7971279.0 20000000.0))
               (* (ite (>= a!4 0.0) a!4 0.0) (/ 13271539.0 25000000.0))
               (* (ite (>= a!5 0.0) a!5 0.0) (- (/ 24752079.0 100000000.0)))
               (* (ite (>= a!6 0.0) a!6 0.0) (/ 23610337.0 50000000.0))
               (* (ite (>= a!7 0.0) a!7 0.0) (/ 9046759.0 20000000.0))
               (* (ite (>= a!8 0.0) a!8 0.0) (- (/ 5177113.0 12500000.0)))
               (* (ite (>= a!9 0.0) a!9 0.0) (/ 55396773.0 1000000000.0))
               (* (ite (>= a!10 0.0) a!10 0.0) (- (/ 45260167.0 100000000.0)))
               (* (ite (>= a!11 0.0) a!11 0.0) (- (/ 25139.0 100000.0)))
               (* (ite (>= a!12 0.0) a!12 0.0) (/ 679071.0 5000000.0))
               (* (ite (>= a!13 0.0) a!13 0.0) (/ 18102671.0 50000000.0))
               (* (ite (>= a!14 0.0) a!14 0.0) (/ 36228883.0 100000000.0))
               (* (ite (>= a!15 0.0) a!15 0.0) (/ 13120961.0 50000000.0))
               (* (ite (>= a!16 0.0) a!16 0.0) (/ 4062197.0 50000000.0))
               (/ 14606081.0 100000000.0)))
      (a!20 (+ 0.0
               (* (ite (>= a!1 0.0) a!1 0.0) (/ 13498649.0 50000000.0))
               (* (ite (>= a!2 0.0) a!2 0.0) (- (/ 7343587.0 10000000.0)))
               (* (ite (>= a!3 0.0) a!3 0.0) (/ 5445633.0 10000000.0))
               (* (ite (>= a!4 0.0) a!4 0.0) (- (/ 420833.0 625000.0)))
               (* (ite (>= a!5 0.0) a!5 0.0) (- (/ 2432923.0 625000.0)))
               (* (ite (>= a!6 0.0) a!6 0.0) (- (/ 15674339.0 50000000.0)))
               (* (ite (>= a!7 0.0) a!7 0.0) (/ 16820443.0 100000000.0))
               (* (ite (>= a!8 0.0) a!8 0.0) (/ 941177.0 4000000.0))
               (* (ite (>= a!9 0.0) a!9 0.0) (/ 6150657.0 50000000.0))
               (* (ite (>= a!10 0.0) a!10 0.0) (- (/ 17589083.0 100000000.0)))
               (* (ite (>= a!11 0.0) a!11 0.0) (- (/ 1293989.0 10000000.0)))
               (* (ite (>= a!12 0.0) a!12 0.0) (/ 40880537.0 50000000.0))
               (* (ite (>= a!13 0.0) a!13 0.0) (/ 12710169.0 25000000.0))
               (* (ite (>= a!14 0.0) a!14 0.0) (- (/ 42981327.0 100000000.0)))
               (* (ite (>= a!15 0.0) a!15 0.0) (- (/ 10729973.0 25000000.0)))
               (* (ite (>= a!16 0.0) a!16 0.0) (/ 16005291.0 50000000.0))
               (/ 400003.0 3125000.0)))
      (a!21 (+ 0.0
               (* (ite (>= a!1 0.0) a!1 0.0) (/ 16485891.0 100000000.0))
               (* (ite (>= a!2 0.0) a!2 0.0) (- (/ 3821397.0 5000000.0)))
               (* (ite (>= a!3 0.0) a!3 0.0) (/ 6067583.0 12500000.0))
               (* (ite (>= a!4 0.0) a!4 0.0) (- (/ 589623.0 10000000.0)))
               (* (ite (>= a!5 0.0) a!5 0.0) (- (/ 365197.0 200000.0)))
               (* (ite (>= a!6 0.0) a!6 0.0) (- (/ 5737217.0 20000000.0)))
               (* (ite (>= a!7 0.0) a!7 0.0) (/ 91547143.0 100000000.0))
               (* (ite (>= a!8 0.0) a!8 0.0) (- (/ 673661.0 625000.0)))
               (* (ite (>= a!9 0.0) a!9 0.0) (/ 18456781.0 100000000.0))
               (* (ite (>= a!10 0.0) a!10 0.0) (- (/ 505287.0 1000000.0)))
               (* (ite (>= a!11 0.0) a!11 0.0) (- (/ 13707921.0 50000000.0)))
               (* (ite (>= a!12 0.0) a!12 0.0) (/ 2815197.0 10000000.0))
               (* (ite (>= a!13 0.0) a!13 0.0) (- (/ 3508423.0 5000000.0)))
               (* (ite (>= a!14 0.0) a!14 0.0) (/ 69769.0 200000.0))
               (* (ite (>= a!15 0.0) a!15 0.0) (- (/ 1484749.0 10000000.0)))
               (* (ite (>= a!16 0.0) a!16 0.0) (- (/ 37985173.0 100000000.0)))
               (/ 1350697.0 25000000.0)))
      (a!22 (+ 0.0
               (* (ite (>= a!1 0.0) a!1 0.0) (- (/ 6352473.0 5000000.0)))
               (* (ite (>= a!2 0.0) a!2 0.0) (- (/ 31554237.0 50000000.0)))
               (* (ite (>= a!3 0.0) a!3 0.0) (/ 9332803.0 10000000.0))
               (* (ite (>= a!4 0.0) a!4 0.0) (- (/ 2092419.0 2500000.0)))
               (* (ite (>= a!5 0.0) a!5 0.0) (- (/ 499031.0 1250000.0)))
               (* (ite (>= a!6 0.0) a!6 0.0) (- (/ 12760511.0 25000000.0)))
               (* (ite (>= a!7 0.0) a!7 0.0) (/ 2783101.0 10000000.0))
               (* (ite (>= a!8 0.0) a!8 0.0) (- (/ 33496517.0 50000000.0)))
               (* (ite (>= a!9 0.0) a!9 0.0) (- (/ 14021169.0 100000000.0)))
               (* (ite (>= a!10 0.0) a!10 0.0) (- (/ 5646703.0 5000000.0)))
               (* (ite (>= a!11 0.0) a!11 0.0) (- (/ 14916089.0 100000000.0)))
               (* (ite (>= a!12 0.0) a!12 0.0) (/ 16598389.0 100000000.0))
               (* (ite (>= a!13 0.0) a!13 0.0) (- (/ 6694873.0 10000000.0)))
               (* (ite (>= a!14 0.0) a!14 0.0) (- (/ 1003303.0 3125000.0)))
               (* (ite (>= a!15 0.0) a!15 0.0) (- (/ 1554387.0 25000000.0)))
               (* (ite (>= a!16 0.0) a!16 0.0) (/ 4305407.0 10000000.0))
               (- (/ 6454743.0 20000000000.0))))
      (a!23 (+ 0.0
               (* (ite (>= a!1 0.0) a!1 0.0) (/ 817853.0 2500000.0))
               (* (ite (>= a!2 0.0) a!2 0.0) (- (/ 11725603.0 12500000.0)))
               (* (ite (>= a!3 0.0) a!3 0.0) (/ 17685479.0 25000000.0))
               (* (ite (>= a!4 0.0) a!4 0.0) (- (/ 1721869.0 5000000.0)))
               (* (ite (>= a!5 0.0) a!5 0.0) (- (/ 12818217.0 10000000.0)))
               (* (ite (>= a!6 0.0) a!6 0.0) (- (/ 11534661.0 25000000.0)))
               (* (ite (>= a!7 0.0) a!7 0.0) (/ 210689.0 800000.0))
               (* (ite (>= a!8 0.0) a!8 0.0) (/ 6032379.0 25000000.0))
               (* (ite (>= a!9 0.0) a!9 0.0) (/ 777949.0 2000000.0))
               (* (ite (>= a!10 0.0) a!10 0.0) (- (/ 665173.0 500000.0)))
               (* (ite (>= a!11 0.0) a!11 0.0) (- (/ 18992229.0 50000000.0)))
               (* (ite (>= a!12 0.0) a!12 0.0) (/ 27059449.0 250000000.0))
               (* (ite (>= a!13 0.0) a!13 0.0) (- (/ 1143867.0 625000.0)))
               (* (ite (>= a!14 0.0) a!14 0.0) (- (/ 39868307.0 100000000.0)))
               (* (ite (>= a!15 0.0) a!15 0.0) (- (/ 23761371.0 500000000.0)))
               (* (ite (>= a!16 0.0) a!16 0.0) (/ 9577549.0 50000000.0))
               (/ 6361577.0 25000000.0)))
      (a!24 (+ 0.0
               (* (ite (>= a!1 0.0) a!1 0.0) (/ 5779507.0 25000000.0))
               (* (ite (>= a!2 0.0) a!2 0.0) (/ 2639251.0 25000000.0))
               (* (ite (>= a!3 0.0) a!3 0.0) (/ 4252493.0 12500000.0))
               (* (ite (>= a!4 0.0) a!4 0.0) (/ 10681249.0 50000000.0))
               (* (ite (>= a!5 0.0) a!5 0.0) (- (/ 98869.0 40000.0)))
               (* (ite (>= a!6 0.0) a!6 0.0) (/ 1543149.0 5000000.0))
               (* (ite (>= a!7 0.0) a!7 0.0) (/ 577401.0 2500000.0))
               (* (ite (>= a!8 0.0) a!8 0.0) (- (/ 1703741.0 10000000.0)))
               (* (ite (>= a!9 0.0) a!9 0.0) (- (/ 6452359.0 100000000.0)))
               (* (ite (>= a!10 0.0) a!10 0.0) (- (/ 6246353.0 10000000.0)))
               (* (ite (>= a!11 0.0) a!11 0.0) (- (/ 977451.0 5000000.0)))
               (* (ite (>= a!12 0.0) a!12 0.0) (/ 4282771.0 10000000.0))
               (* (ite (>= a!13 0.0) a!13 0.0) (/ 13341539.0 10000000.0))
               (* (ite (>= a!14 0.0) a!14 0.0) (- (/ 582057.0 2000000.0)))
               (* (ite (>= a!15 0.0) a!15 0.0) (- (/ 4859231.0 12500000.0)))
               (* (ite (>= a!16 0.0) a!16 0.0) (/ 4913941.0 20000000.0))
               (- (/ 16211033.0 100000000.0)))))
(let ((a!25 (+ 0.0
               (* (ite (>= a!17 0.0) a!17 0.0) (/ 23012659.0 50000000.0))
               (* (ite (>= a!18 0.0) a!18 0.0) (- (/ 627163.0 2500000.0)))
               (* (ite (>= a!19 0.0) a!19 0.0) (/ 1208961.0 2000000.0))
               (* (ite (>= a!20 0.0) a!20 0.0) (/ 9231143.0 20000000.0))
               (* (ite (>= a!21 0.0) a!21 0.0) (- (/ 96981287.0 100000000.0)))
               (* (ite (>= a!22 0.0) a!22 0.0) (- (/ 1226397.0 625000.0)))
               (* (ite (>= a!23 0.0) a!23 0.0) (/ 16503793.0 20000000.0))
               (* (ite (>= a!24 0.0) a!24 0.0) (- (/ 1769341.0 2000000.0)))
               (/ 350077.0 2500000.0))))
(let ((a!26 (/ (- (+ (* a!25 (/ 1404833333.0 10000000.0))
                     (- (/ 674833333.0 10000000.0)))
                  (- (/ 674833333.0 10000000.0)))
               (/ 1474833333.0 10000000.0))))
  (or (>= a!26 (/ 8.0 10.0)))))))

)))
(check-sat)
